N = 8;
H = 5;
T = 2;

avail = array3d(1..N, 1..H, 1..T, [4, 3, 8, 4, 2, 10, 1, 9, 2, 9, 9, 1, 6, 4, 2, 0, 7, 7, 7, 7, 1, 7, 10, 3, 6, 2, 2, 2, 2, 3, 4, 4, 8, 4, 1, 2, 0, 9, 7, 5, 5, 3, 1, 10, 4, 8, 6, 3, 6, 6, 10, 6, 8, 5, 3, 2, 8, 3, 4, 9, 0, 2, 3, 6, 2, 4, 9, 1, 10, 4, 0, 5, 0, 7, 1, 5, 2, 0, 6, 6]);

r = array2d(1..H, 1..T, [0, 1, 3, 1, 1, 2, 2, 1, 1, 1]);
